30
2
20293
401 342
false
0.25
50 31 16 13 5 27 17 40 19 34 26 44 32 43 7 15 16 32 13 35 33 33 21 43 24 35 14 50 28 48
37 9 10 2 13 23 18 17 19 42 36 5 49 7 13 8 7 13 8 35 36 28 45 1 14 17 16 29 40 38
31 65 17 85 96 13 100 1 23 15 67 79 35 93 0 10 66 40 16 35 5 30 12 35 58 53 62 71 94 66
0 0 0 0 81 0 3 40 0 87 0 0 56 17 0 0 0 77 70 23 0 0 0 17 0 0 69 0 0 88
0 0 0 0 0 0 0 0 0 0 0 0 0 0 0 0 0 0 0 0 56 87 0 0 0 0 0 7 0
0 0 0 0 0 53 0 0 0 0 0 0 28 0 0 0 0 0 0 0 0 0 0 45 21 0 0 0
0 0 0 0 29 11 0 77 0 0 82 0 0 0 0 0 0 0 0 0 0 43 0 82 0 1 0
0 18 71 0 94 0 0 0 0 62 0 0 0 0 0 93 0 45 0 0 0 0 0 0 0 0
0 0 13 87 54 0 0 0 80 0 28 92 0 0 0 28 0 0 41 0 0 0 11 57 83
0 0 0 64 0 0 0 0 0 0 0 0 0 0 18 0 0 0 40 71 6 68 0 0
0 0 0 0 0 0 0 0 0 0 60 0 0 0 17 27 0 16 0 0 54 0 0
0 0 84 0 0 0 0 0 0 0 36 0 0 0 0 0 0 0 0 0 0 70
0 0 0 66 0 0 0 0 41 0 0 0 0 4 51 85 52 0 0 61 0
0 0 0 0 0 0 73 0 0 0 0 0 0 0 14 18 65 84 0 56
0 0 0 0 0 0 0 0 0 72 0 0 0 43 0 0 0 79 0
0 59 61 35 51 0 26 0 0 0 0 0 0 0 0 0 0 0
0 0 0 29 0 0 0 95 65 0 0 48 0 0 0 57 0
0 0 0 0 43 0 0 0 0 0 75 0 0 0 0 4
0 0 0 45 0 0 0 0 0 36 0 0 0 0 0
0 0 0 76 0 0 0 0 41 0 0 0 0 0
0 32 0 0 0 0 0 0 0 0 0 72 0
0 0 0 0 48 0 0 0 0 0 0 0
0 0 0 17 0 1 0 75 0 97 0
0 0 0 0 0 0 0 0 0 0
0 0 0 63 0 0 0 0 0
0 0 0 0 0 0 0 0
0 0 0 0 0 0 0
0 0 0 0 8 62
0 0 74 0 0
0 0 0 0
0 81 0
0 71
0 19 0 0 0 0 0 0 0 98 0 0 0 0 29 97 0 0 0 0 0 31 64 0 0 0 0 83 0
0 0 31 0 0 0 51 0 0 29 0 0 0 0 0 0 94 0 0 0 0 0 70 0 0 0 0 0
0 0 0 0 0 0 0 0 95 0 0 0 0 0 44 0 33 0 0 88 43 0 0 98 0 0 0
0 59 0 0 0 0 0 0 0 0 0 0 0 0 93 0 0 0 0 0 6 0 57 73 0 0
0 0 0 0 0 0 0 0 0 52 0 0 0 94 0 0 0 0 31 0 0 79 0 4 0
0 0 100 9 0 53 0 1 0 0 82 37 0 0 17 0 0 0 0 0 0 84 0 71
0 0 0 0 0 0 0 58 0 0 36 0 0 0 0 86 35 0 0 0 5 0 0
0 0 0 0 0 0 50 0 0 0 0 0 0 0 18 57 0 27 0 0 0 0
0 0 0 0 0 0 0 87 0 0 4 0 0 0 0 0 0 0 0 0 0
0 0 0 0 0 0 0 0 69 87 0 51 0 0 79 0 0 0 0 0
0 0 0 0 0 0 0 0 0 52 0 0 0 88 0 0 0 0 0
0 14 0 0 27 0 0 0 21 0 0 0 76 77 0 0 0 0
0 69 0 0 0 0 0 0 0 0 0 0 94 0 91 0 0
0 73 0 9 0 6 0 0 0 0 0 0 0 0 0 0
0 17 0 0 0 0 0 0 0 0 0 18 99 18 0
0 0 24 0 1 0 56 0 0 0 0 0 0 20
0 0 0 0 0 0 0 0 0 0 0 0 0
0 0 0 0 0 0 0 0 0 0 0 0
0 0 0 0 0 0 0 0 0 0 27
0 0 0 0 0 0 58 0 49 0
0 39 0 0 0 61 0 0 0
0 93 0 0 0 0 0 0
0 0 0 56 0 0 0
0 3 0 0 0 0
0 0 0 0 41
0 0 0 92
0 0 0
0 11
0
0 0 0 0 0 89 0 0 0 0 67 0 14 0 0 0 84 0 0 0 0 89 0 0 0 0 71 0
0 0 0 6 0 0 0 88 0 0 0 0 0 0 0 91 0 80 0 64 0 0 0 49 22 0 0
0 0 0 44 0 0 0 0 0 51 0 80 0 0 0 70 0 20 0 0 0 45 35 11 0 0
0 13 0 94 0 18 0 0 0 0 0 0 0 0 94 26 18 0 0 0 36 96 0 97 7
0 0 0 0 0 0 0 0 0 0 0 0 0 0 0 7 0 0 0 93 0 0 93 0
0 0 39 98 0 55 0 39 0 24 0 0 0 0 86 100 40 0 0 0 72 0 0
0 0 90 0 0 69 0 0 54 0 0 33 0 0 0 0 0 0 0 0 0 0
0 0 0 0 0 0 0 0 60 0 0 0 19 0 0 0 0 0 83 0 95
0 38 0 0 0 0 11 26 0 0 96 0 87 19 15 0 0 0 27 0
0 0 0 0 0 0 54 0 26 0 0 0 0 0 63 19 39 0 0
0 0 0 0 0 0 0 0 61 0 72 38 0 0 0 0 0 0
0 0 0 0 0 17 0 0 0 0 0 0 91 0 33 0 0
0 0 0 0 0 0 0 0 6 0 0 0 0 0 0 94
0 0 0 0 52 14 69 0 51 0 0 0 43 0 0
0 0 0 0 78 32 0 39 0 0 97 0 97 0
0 0 0 0 0 38 90 0 0 0 0 0 78
0 0 0 9 0 0 0 0 0 0 83 0
0 0 0 0 0 61 0 0 79 82 0
0 46 97 0 0 0 0 0 0 0
0 40 0 0 0 61 13 0 0
0 0 0 0 25 0 0 0
0 0 0 0 0 0 0
0 52 0 0 0 0
0 0 0 63 0
0 0 56 37
0 21 0
0 0
0
0 0 0 0 59 0 0 0 0 0 0 0 42 0 0 0 0 44 0 0 0 0 0 0 0 0 66
0 0 0 0 81 0 52 0 0 0 0 79 0 0 0 0 0 0 0 0 81 0 0 89 0 0
0 0 0 0 6 37 0 0 0 0 0 0 35 0 13 0 0 0 0 0 0 0 0 0 0
0 6 0 0 59 16 0 0 58 0 0 0 0 0 43 89 0 0 0 0 76 0 0 54
0 55 0 0 0 12 0 0 10 0 86 20 76 15 97 0 0 0 0 0 0 0 0
0 50 0 0 0 92 0 0 0 47 0 0 0 0 0 32 0 0 0 0 0 0
0 0 57 22 0 0 0 0 0 16 82 96 0 0 0 0 0 0 0 57 0
0 0 0 0 82 0 0 0 70 0 0 0 0 11 0 0 0 0 35 0
0 0 91 20 0 69 7 0 0 21 0 0 0 0 0 0 0 0 0
0 0 0 0 62 0 0 98 0 0 0 0 0 68 62 0 0 0
0 0 0 0 0 70 0 0 0 0 0 0 96 0 47 0 0
0 0 0 0 51 0 0 0 0 0 0 0 0 0 0 0
0 0 0 0 50 0 12 0 0 84 0 14 0 0 0
0 0 0 0 0 0 61 68 0 0 0 0 0 0
0 21 55 0 0 0 0 0 0 0 0 0 0
0 0 0 0 18 0 0 0 0 0 0 0
0 1 36 5 0 0 0 0 57 0 0
0 0 98 0 0 0 0 0 58 92
0 26 0 0 0 0 0 41 42
0 0 0 0 0 0 0 100
0 0 0 0 0 0 17
0 0 0 0 0 0
0 0 0 0 0
0 0 0 0
0 0 0
0 0
0
0 0 0 0 0 0 0 0 0 0 0 56 0 100 0 0 0 0 0 87 0 99 0 0 62 0
0 0 37 0 0 0 0 0 0 0 0 0 0 0 0 63 0 0 0 93 0 0 0 0 0
0 0 0 0 0 73 0 0 0 21 0 89 0 43 0 0 0 61 0 89 0 0 0 0
0 0 65 0 0 0 0 0 0 62 0 0 0 0 0 100 0 0 0 0 0 78 0
0 30 0 0 0 30 0 0 0 0 0 0 100 67 0 3 0 0 0 0 0 0
0 0 0 0 0 0 0 0 0 0 82 39 0 76 4 0 0 0 0 0 89
0 0 0 0 0 0 0 0 0 0 0 27 0 0 0 0 7 93 0 0
0 0 10 0 0 0 0 0 0 65 29 0 25 0 56 0 0 10 0
0 0 0 65 0 0 0 0 0 0 0 45 0 0 0 0 0 0
0 80 0 0 62 0 0 95 0 0 0 81 0 0 0 0 0
0 63 0 22 0 0 0 0 0 43 0 0 0 0 0 0
0 0 0 0 0 0 83 0 0 0 0 0 0 0 0
0 0 25 0 0 96 0 0 0 0 0 0 0 0
0 0 0 0 0 0 57 0 0 0 0 0 0
0 1 88 0 0 0 53 18 0 0 0 0
0 0 0 62 0 0 0 62 0 93 0
0 0 41 0 0 0 36 0 0 0
0 46 10 0 0 0 75 52 0
0 21 0 0 0 89 83 0
0 0 0 0 0 0 0
0 0 0 0 0 0
0 0 0 76 98
0 0 0 0
0 53 0
0 77
0
0 0 0 0 58 0 0 0 0 0 70 0 66 0 0 0 92 0 0 22 0 35 0 60 0
0 0 68 0 19 21 92 0 0 0 0 1 0 0 91 57 0 0 20 0 0 98 0 0
0 31 25 0 51 0 31 91 2 0 24 0 0 0 0 0 0 0 0 0 26 31 47
0 0 0 0 0 0 0 0 0 0 0 4 0 95 0 0 0 0 0 0 0 0
0 0 0 0 0 0 0 0 0 0 0 0 0 0 0 0 9 0 0 18 0
0 0 0 0 28 0 0 0 76 0 0 0 27 0 0 0 63 0 0 0
0 46 20 0 0 0 0 0 0 50 0 0 0 56 0 0 0 0 0
0 96 0 0 0 0 0 0 0 0 0 66 0 0 0 0 0 31
0 0 0 0 0 0 0 0 0 70 0 0 0 0 0 0 89
0 0 0 0 65 0 0 0 0 26 0 0 0 67 8 9
0 0 0 0 0 0 0 0 18 0 0 0 0 0 71
0 65 0 0 0 0 0 0 0 0 0 58 0 0
0 0 74 0 27 0 0 59 0 40 2 0 44
0 0 0 72 0 0 49 39 0 88 0 0
0 0 0 0 0 0 67 0 0 74 0
0 0 0 61 0 0 0 0 26 0
0 56 28 0 0 0 0 0 0
0 0 0 0 0 92 33 9
0 0 0 0 0 34 0
0 0 0 0 0 0
0 32 0 0 61
0 0 70 12
0 51 0
0 0
0
0 0 51 0 0 0 5 0 0 0 0 0 71 82 19 0 0 0 4 15 94 21 0 0
0 0 0 0 11 71 0 0 0 0 0 0 0 0 0 48 0 75 0 0 0 0 0
0 0 0 97 0 0 0 0 0 0 0 36 0 0 29 0 0 0 0 0 0 98
0 0 0 0 0 9 0 0 0 24 0 0 98 0 0 0 0 0 17 0 0
0 0 0 0 0 0 0 0 0 8 56 0 63 0 0 88 0 0 0 0
0 85 0 0 0 86 0 0 0 0 0 32 0 0 65 0 35 19 28
0 59 0 0 0 0 41 33 0 0 0 0 60 1 6 0 0 0
0 0 0 0 0 0 0 0 0 0 0 0 49 0 99 0 0
0 0 0 0 92 0 0 100 17 0 0 0 0 0 0 64
0 0 0 0 0 60 35 0 56 0 0 59 0 0 0
0 3 35 0 0 0 0 19 13 0 54 0 0 0
0 0 76 45 0 21 0 0 0 17 0 25 20
0 0 0 0 0 44 0 0 0 0 41 0
0 26 0 0 0 0 0 0 0 0 0
0 3 0 0 92 0 0 0 0 0
0 0 11 34 0 0 0 0 0
0 0 4 0 0 0 0 0
0 0 0 0 0 0 57
0 0 75 0 0 0
0 0 71 0 0
0 76 0 0
0 0 34
0 69
0
0 0 38 96 93 0 67 0 0 0 20 69 0 0 0 0 0 52 17 0 0 0 0
0 0 0 0 0 0 0 0 0 0 0 0 57 0 0 11 28 98 0 0 0 0
0 0 0 0 12 47 0 0 21 0 27 0 0 18 0 0 0 0 0 50 0
0 0 0 0 0 0 14 0 25 90 0 0 0 0 0 0 0 0 0 0
0 0 3 0 0 0 0 0 0 0 0 0 0 0 0 0 0 0 0
0 0 8 0 0 0 0 84 0 0 0 0 0 62 0 0 0 6
0 0 0 76 0 0 0 0 0 33 24 0 0 0 0 0 0
0 22 0 0 0 0 0 0 0 36 0 0 0 0 0 87
0 0 0 89 0 36 0 0 0 0 0 0 0 36 0
0 0 0 0 0 5 0 84 0 0 34 95 0 0
0 0 0 71 0 0 0 0 0 73 0 0 0
0 0 0 0 0 0 94 0 0 0 82 0
0 0 0 0 0 0 0 39 0 82 0
0 8 0 72 0 0 0 0 0 0
0 0 0 0 0 33 80 0 0
0 0 59 33 72 0 0 61
0 0 0 0 77 96 0
0 0 0 0 0 0
0 0 0 0 0
0 0 0 0
0 0 0
0 0
0
0 0 0 13 0 0 0 0 0 57 0 0 0 34 0 55 0 0 0 0 90 47
0 64 0 45 0 0 0 0 0 0 85 0 0 0 0 42 0 32 0 50 0
0 0 0 10 10 0 0 0 0 3 0 0 64 0 0 0 0 0 0 0
0 0 0 38 0 58 86 0 0 0 0 0 58 0 0 0 0 0 0
0 0 0 0 89 0 0 0 0 0 0 33 76 66 0 0 61 44
0 0 0 0 0 0 0 0 0 0 13 0 0 0 0 0 0
0 0 0 0 0 0 0 0 0 0 0 0 0 0 0 0
0 27 0 85 87 0 0 0 60 0 80 0 0 78 0
0 0 56 0 0 77 72 0 0 0 66 0 0 72
0 0 56 0 0 0 0 56 23 0 67 54 0
0 46 0 0 96 0 0 19 45 0 0 0
0 0 76 0 0 0 0 61 55 0 0
0 0 6 26 0 44 0 25 0 17
0 0 57 82 0 0 0 0 0
0 0 0 0 54 0 52 0
0 53 0 0 0 38 0
0 0 0 0 0 6
0 0 0 0 0
0 0 0 69
0 0 38
0 44
0
0 0 17 0 0 0 27 0 0 0 0 0 74 0 0 0 0 0 0 0 0
0 0 0 0 0 0 0 0 0 85 0 40 0 32 0 54 0 0 21 0
0 0 0 0 0 0 0 0 0 76 0 0 0 0 0 0 0 0 0
0 0 0 0 0 0 83 0 0 0 0 0 0 46 0 0 32 0
0 0 0 0 0 0 0 57 0 0 56 0 0 0 0 0 23
0 0 0 0 0 64 0 0 0 0 63 0 0 0 0 0
0 37 0 0 0 0 0 0 0 18 0 0 0 0 0
0 39 0 0 0 14 0 0 0 65 0 0 0 0
0 0 43 0 0 0 0 89 0 0 0 0 0
0 79 0 0 0 95 20 0 0 0 0 0
0 92 0 0 0 0 31 0 50 0 39
0 0 0 0 0 0 0 0 0 0
0 0 0 46 0 0 40 20 0
0 0 0 0 0 0 0 0
0 16 0 0 0 89 0
0 0 0 0 0 35
0 0 0 58 0
0 0 0 0
0 0 0
0 0
0
0 0 0 0 0 0 0 79 0 0 0 0 0 38 0 0 87 0 64 0
0 85 0 0 0 0 79 0 0 53 0 0 0 0 0 0 0 0 0
0 0 0 0 33 0 0 0 0 95 0 23 0 0 0 0 0 0
0 0 35 0 0 0 0 70 0 0 0 0 0 0 0 0 36
0 0 0 19 0 0 13 0 0 0 0 0 36 98 0 0
0 77 82 0 17 0 90 69 0 0 0 0 30 0 0
0 36 0 0 0 84 0 0 3 54 50 3 0 99
0 54 18 0 0 0 0 9 11 0 0 0 0
0 0 0 50 0 0 0 87 0 0 0 0
0 0 0 0 82 40 0 0 0 20 0
0 51 100 44 0 0 0 0 0 35
0 0 0 0 28 0 0 0 0
0 0 77 0 0 69 68 0
0 0 0 31 0 0 0
0 0 0 0 0 0
0 0 0 0 72
0 0 0 0
0 0 0
0 0
0
0 0 0 0 0 0 0 0 0 0 0 0 68 0 0 0 0 62 0
0 62 0 99 22 0 0 42 0 0 96 0 0 0 0 0 0 0
0 0 0 84 95 0 0 0 0 0 0 0 85 0 0 0 0
0 28 0 0 0 21 0 0 0 0 0 13 0 18 0 0
0 0 0 0 0 0 0 0 0 0 0 0 74 0 0
0 96 0 0 0 0 44 0 0 0 0 0 0 0
0 11 0 0 0 0 0 0 0 68 0 45 0
0 0 0 0 0 0 0 0 78 0 0 0
0 35 0 0 62 0 0 1 0 0 0
0 0 0 89 0 0 0 0 0 0
0 38 0 5 0 0 67 0 0
0 0 92 0 0 79 0 47
0 0 0 68 0 0 0
0 0 0 98 0 0
0 0 0 0 0
0 43 4 0
0 0 76
0 49
0
0 85 55 0 0 0 0 0 0 0 0 0 0 45 0 0 20 0
0 53 0 0 0 0 0 34 0 0 0 0 0 21 0 95 0
0 0 33 0 0 0 0 0 0 0 0 0 0 0 0 0
0 21 0 0 0 55 48 95 0 0 0 83 0 40 0
0 0 0 0 0 90 0 0 0 0 0 0 0 0
0 0 24 51 0 0 92 0 0 0 0 0 0
0 0 30 76 0 0 0 71 0 74 0 0
0 0 26 76 0 61 0 0 0 10 45
0 97 0 0 0 0 68 0 0 0
0 0 0 26 3 0 0 0 0
0 0 73 0 83 0 58 0
0 0 0 0 0 0 0
0 39 0 0 0 25
0 0 9 0 20
0 36 83 0
0 24 0
0 0
0
0 75 39 0 8 0 21 0 0 0 0 0 0 0 87 0 0
0 3 0 0 0 0 35 0 0 21 0 0 0 79 0 0
0 0 0 0 0 79 0 0 54 88 0 9 0 68 15
0 0 0 0 0 0 0 0 56 95 13 90 0 15
0 0 0 0 0 0 0 0 0 0 74 6 60
0 0 0 0 0 0 25 0 0 0 0 0
0 0 0 0 0 0 0 0 58 0 0
0 3 0 24 0 0 0 0 0 0
0 0 0 0 0 35 19 0 99
0 92 0 0 0 0 0 0
0 0 0 24 0 0 28
0 0 0 88 40 0
0 0 0 64 0
0 0 82 23
0 0 0
0 67
0
0 0 0 6 0 0 0 0 0 0 0 0 0 68 0 67
0 32 0 91 0 0 18 0 0 0 77 0 0 0 0
0 0 0 0 57 0 0 0 46 0 0 6 82 0
0 0 0 0 0 52 0 0 6 0 0 51 0
0 92 0 0 0 37 0 0 0 0 48 82
0 0 0 39 0 0 0 17 0 0 0
0 0 0 0 0 0 0 16 0 0
0 24 0 8 0 0 0 0 0
0 80 0 0 0 81 0 0
0 0 43 0 13 0 0
0 0 0 0 0 0
0 15 89 0 0
0 0 87 68
0 79 0
0 0
0
0 77 83 0 0 0 0 0 78 0 38 0 0 47 3
0 62 23 0 0 0 0 0 0 0 0 0 0 0
0 0 0 0 0 0 0 0 0 0 0 67 0
0 0 0 0 0 0 0 0 0 0 0 0
0 0 0 0 0 0 0 0 49 0 95
0 0 0 0 0 0 0 0 0 96
0 9 0 0 0 0 0 0 0
0 0 0 0 6 0 0 39
0 0 0 0 0 0 0
0 0 94 0 43 0
0 0 0 0 0
0 36 0 0
0 38 69
0 92
0
0 5 0 55 0 42 98 0 0 0 0 0 0 0
0 0 0 0 0 0 0 22 0 0 0 62 0
0 53 51 78 0 44 0 0 0 0 0 18
0 73 0 0 39 87 0 66 0 0 0
0 40 0 0 0 0 0 0 2 0
0 40 81 0 0 0 85 0 0
0 0 0 0 0 60 0 0
0 0 0 0 0 0 0
0 69 46 0 0 0
0 0 76 0 0
0 0 0 0
0 0 0
0 0
0
0 0 0 0 72 94 0 4 0 0 0 0 0
0 0 0 77 0 0 0 33 0 0 0 91
0 0 0 0 0 0 69 0 0 0 0
0 0 0 0 0 0 0 0 0 0
0 0 0 74 0 0 0 0 0
0 89 0 0 0 0 0 0
0 0 0 0 0 0 0
0 12 0 74 32 0
0 46 0 39 0
0 0 0 0
0 0 0
0 0
0
0 70 0 0 0 12 0 13 95 0 0 0
0 16 0 0 0 0 34 0 63 0 0
0 0 0 0 0 0 22 0 0 16
0 40 61 0 34 0 0 0 0
0 0 0 0 31 0 0 79
0 0 0 0 0 0 52
0 0 0 0 0 80
0 0 0 0 0
0 0 0 0
0 30 0
0 0
0
0 100 0 0 0 0 0 0 0 0 0
0 96 0 0 0 0 0 0 0 0
0 0 67 0 40 0 94 0 0
0 0 0 0 0 0 70 0
0 34 0 0 0 0 50
0 6 79 0 0 0
0 0 0 0 0
0 0 0 0
0 0 0
0 0
0
0 44 62 0 0 0 0 0 100 0
0 0 0 0 0 79 0 11 0
0 0 77 0 0 0 65 0
0 0 0 0 0 0 0
0 6 0 0 0 0
0 0 0 0 0
0 0 89 0
0 0 0
0 0
0
0 0 0 0 73 0 0 0 0
0 0 0 83 28 21 0 0
0 0 0 0 0 0 0
0 0 0 0 95 0
0 25 0 0 0
0 0 0 0
0 0 0
0 37
0
0 28 91 40 28 0 0 0
0 29 0 0 0 0 0
0 0 26 38 0 0
0 0 0 0 0
0 0 0 0
0 13 0
0 15
0
0 0 0 0 23 0 0
0 0 0 12 0 0
0 0 0 51 0
0 0 0 43
0 0 0
0 69
0
0 39 21 0 0 0
0 44 0 48 0
0 0 0 0
0 0 0
0 0
0
0 23 0 0 0
0 41 0 0
0 0 0
0 0
0
0 22 83 72
0 0 0
0 0
0
0 0 0
0 0
0
0 0
0
0
4987 6089 4795 5493 5681 5446 5515 6358 4499 5237 5376 5022 5381 5420 3936 5483 5516 5090 5345 5850 5144 5694 5990 4726 5026 4835 5200 5565 6421 5083
117.26189189189188 436.4874551971326 389.59375 1584.5192307692307 786.6 219.24315619967794 315.4003267973857 266.475 236.78947368421052 139.35994397759103 178.05128205128204 559.2681818181818 138.98628826530611 450.16611295681065 432.5274725274726 525.4541666666667 566.375 275.3004807692308 539.6394230769231 167.14285714285714 149.3838383838384 187.9512987012987 209.1746031746032 2417.953488372093 284.2083333333333 211.27731092436977 348.2142857142857 151.59827586206896 194.9232142857143 119.8294956140351
